NAME: random-9-25118
TYPE: TSP
COMMENT: size=9 seed=25118
DIMENSION: 20
EDGE_WEIGHT_TYPE: EUC_2D
NODE_COORD_SECTION
+0 226 341
-0 226 341
+1 586 243
-1 85 607
+2 800 43
-2 16 708
+3 872 360
-3 192 19
+4 107 151
-4 510 550
+5 312 192
-5 591 136
+6 742 49
-6 759 829
+7 785 566
-7 791 300
+8 392 282
-8 844 826
+9 692 229
-9 198 6
PRECEDENCE_SECTION
+0 -0
+1 -1
+2 -2
+3 -3
+4 -4
+5 -5
+6 -6
+7 -7
+8 -8
+9 -9
EOF
